c INSTANCE 1
p edge 4 4
e 1 2
e 2 3
e 3 4
e 4 1

c INSTANCE 2
p edge 4 3
e 1 2
e 2 3
e 3 4

c INSTANCE 3
p edge 5 6
e 1 2
e 2 3
e 3 4
e 4 5
e 5 1
e 2 5

c INSTANCE 4
p edge 5 4
e 1 2
e 2 3
e 3 4
e 4 5

c INSTANCE 5
p edge 6 7
e 1 2
e 2 3
e 3 4
e 4 5
e 5 6
e 6 1
e 2 5

c INSTANCE 6
p edge 6 5
e 1 2
e 2 3
e 3 4
e 4 5
e 5 6

c INSTANCE 7
p edge 7 9
e 1 2
e 2 3
e 3 4
e 4 5
e 5 6
e 6 7
e 7 1
e 2 5
e 3 6

c INSTANCE 8
p edge 7 6
e 1 2
e 2 3
e 3 4
e 4 5
e 3 6
e 6 7

c INSTANCE 9
p edge 8 10
e 1 2
e 2 3
e 3 4
e 4 5
e 5 6
e 6 7
e 7 8
e 8 1
e 2 6
e 3 7

c INSTANCE 10
p edge 8 7
e 1 2
e 2 3
e 3 4
e 4 5
e 3 6
e 6 7
e 6 8

c INSTANCE 11
p edge 9 12
e 1 2
e 2 3
e 3 4
e 4 5
e 5 6
e 6 7
e 7 8
e 8 9
e 9 1
e 2 5
e 3 7
e 4 8

c INSTANCE 12
p edge 9 8
e 1 2
e 2 3
e 3 4
e 4 5
e 5 6
e 3 7
e 7 8
e 8 9

c INSTANCE 13
p edge 10 14
e 1 2
e 2 3
e 3 4
e 4 5
e 5 6
e 6 7
e 7 8
e 8 9
e 9 10
e 10 1
e 1 5
e 3 7
e 4 8
e 2 6

c INSTANCE 14
p edge 10 9
e 1 2
e 2 3
e 3 4
e 4 5
e 5 6
e 6 7
e 7 8
e 8 9
e 9 10

c INSTANCE 15
p edge 11 16
e 1 2
e 2 3
e 3 4
e 4 5
e 5 6
e 6 7
e 7 8
e 8 9
e 9 10
e 10 11
e 11 1
e 1 4
e 3 7
e 4 8
e 5 9
e 6 10

c INSTANCE 16
p edge 11 10
e 1 2
e 2 3
e 3 4
e 4 5
e 5 6
e 6 7
e 3 8
e 8 9
e 8 10
e 10 11

c INSTANCE 17
p edge 12 18
e 1 2
e 2 3
e 3 4
e 4 5
e 5 6
e 6 7
e 7 8
e 8 9
e 9 10
e 10 11
e 11 12
e 12 1
e 2 6
e 3 9
e 4 8
e 5 10
e 1 7
e 6 12

c INSTANCE 18
p edge 12 11
e 1 2
e 2 3
e 3 4
e 4 5
e 5 6
e 6 7
e 7 8
e 8 9
e 9 10
e 10 11
e 11 12

c INSTANCE 19
p edge 15 20
e 1 2
e 2 3
e 3 4
e 4 5
e 5 6
e 6 7
e 7 8
e 8 9
e 9 10
e 10 11
e 11 12
e 12 13
e 13 14
e 14 15
e 15 1
e 3 7
e 5 9
e 8 12
e 10 14
e 1 8

c INSTANCE 20
p edge 15 14
e 1 2
e 2 3
e 3 4
e 4 5
e 5 6
e 6 7
e 7 8
e 8 9
e 9 10
e 10 11
e 11 12
e 12 13
e 13 14
e 14 15
